benchmarks/bfuzz0/15037239151686717550268602938517496160.smt2
(set-logic QF_FP)
(declare-const x0 (_ FloatingPoint 11 53))
(declare-const x1 (_ FloatingPoint 11 53))
(declare-const x2 (_ FloatingPoint 11 53))
(declare-const x3 (_ FloatingPoint 11 53))
(declare-const x4 (_ FloatingPoint 11 53))
(declare-const x5 (_ FloatingPoint 11 53))
(declare-const x6 (_ FloatingPoint 11 53))
(declare-const x7 (_ FloatingPoint 11 53))
(declare-const x8 (_ FloatingPoint 11 53))
(assert (fp.gt (fp.sub RNE (fp.div RNE x8 x7) (fp.mul RNE x3 x8)) (fp.add RNE (fp.sub RNE x7 x4) (fp.neg x7))))
(assert (fp.eq (fp.add RNE (fp.div RNE x6 x5) (fp.div RNE x0 x3)) (fp.sub RNE (fp.div RNE x8 x4) (fp.mul RNE x7 x4))))
(assert (fp.leq (fp.add RNE (fp.mul RNE x8 x5) (fp.sub RNE x7 x3)) (fp.div RNE (fp.div RNE x0 x1) (fp.div RNE x8 x1))))
(assert (fp.lt (fp.mul RNE (fp.neg x1) (fp.div RNE x0 x1)) (fp.div RNE (fp.sub RNE x1 x0) (fp.sub RNE x0 x4))))
(assert (fp.leq (fp.div RNE (fp.sub RNE x0 x6) (fp.div RNE x5 x5)) (fp.mul RNE (fp.sub RNE x8 x4) (fp.div RNE x1 x1))))
(assert (fp.gt (fp.div RNE (fp.sub RNE x5 x0) (fp.neg x3)) (fp.sub RNE (fp.neg x2) (fp.add RNE x8 x8))))
(assert (fp.leq (fp.neg (fp.add RNE x1 x6)) (fp.sub RNE (fp.add RNE x1 x7) (fp.add RNE x7 x4))))
(assert (fp.lt (fp.neg (fp.neg x2)) (fp.add RNE (fp.neg x4) (fp.add RNE x0 x5))))
(assert (fp.lt (fp.mul RNE (fp.sub RNE x3 x7) (fp.neg x1)) (fp.sub RNE (fp.div RNE x8 x5) (fp.add RNE x5 x0))))
(assert (fp.leq (fp.neg (fp.neg x1)) (fp.div RNE (fp.add RNE x2 x7) (fp.mul RNE x5 x8))))
(assert (fp.leq (fp.mul RNE (fp.add RNE x1 x6) (fp.sub RNE x5 x1)) (fp.mul RNE (fp.div RNE x5 x4) (fp.neg x4))))
(assert (fp.gt (fp.sub RNE (fp.sub RNE x4 x1) (fp.mul RNE x7 x2)) (fp.mul RNE (fp.div RNE x7 x7) (fp.add RNE x3 x2))))
(assert (fp.gt (fp.div RNE (fp.div RNE x7 x2) (fp.mul RNE x8 x4)) (fp.sub RNE (fp.add RNE x3 x8) (fp.div RNE x1 x0))))
(assert (fp.eq (fp.sub RNE (fp.sub RNE x3 x2) (fp.add RNE x1 x6)) (fp.neg (fp.div RNE x8 x8))))
(check-sat)
