db/data/15037239151686717550268602938517496160.z3.out
-------------------
2500.741032698
